letting n =  10
letting blocks =  [[1, 6], [1, 10], [2, 4], [2, 6], [2, 7], [2, 10], [3, 2], [3, 4], [4, 4], [4, 5], [4, 9], [5, 6], [6, 3], [6, 6], [6, 8], [7, 4], [7, 10], [8, 6], [9, 3], [9, 6], [9, 8], [10, 2]]
